CapLotSizing_PM/src/Instancias/NCHSHT/6i18p4m/NBA02.OUT
 CG ITER, OVMR, OVMRUB =           1   33325.7968750   33325.7968750
 CG ITER, OVMR, OVMRUB =           2   32408.5996094   32408.5996094
 CG ITER, OVMR, OVMRUB =           3   32408.5996094   32408.5996094
 CG ITER, OVMR, OVMRUB =           4   32408.5996094   32408.5996094
 CG ITER, OVMR, OVMRUB =           5   32142.5820312   32142.5820312
 CG ITER, OVMR, OVMRUB =           6   32142.5839844   32142.5820312
 CG ITER, OVMR, OVMRUB =           7   32142.5820312   32142.5820312
 CG ITER, OVMR, OVMRUB =           8   32142.5839844   32142.5820312
 CG ITER, OVMR, OVMRUB =           9   32142.5859375   32142.5820312
 CG ITER, OVMR, OVMRUB =          10   32142.5820312   32142.5820312
 CG ITER, OVMR, OVMRUB =          11   32142.5859375   32142.5820312
 CG ITER, OVMR, OVMRUB =          12   32142.5820312   32142.5820312
 CG ITER, OVMR, OVMRUB =          13   32142.5839844   32142.5820312
 CG ITER, OVMR, OVMRUB =          14   32142.5820312   32142.5820312
 CG ITER, OVMR, OVMRUB =          15   30627.1875000   32142.5820312
 CG ITER, OVMR, OVMRUB =          16   31633.5722656   32142.5820312
 CG ITER, OVMR, OVMRUB =          17   32132.1484375   32142.5820312
 CG ITER, OVMR, OVMRUB =          18   32114.7675781   32142.5820312
 CG ITER, OVMR, OVMRUB =          19   32142.5820312   32142.5820312
 CG ITER, OVMR, OVMRUB =          20   32142.5859375   32142.5820312
 CG ITER, OVMR, OVMRUB =          21   32140.5898438   32142.5820312
 CG ITER, OVMR, OVMRUB =          22   30552.8203125   32142.5820312
 CG ITER, OVMR, OVMRUB =          23   30467.6269531   32142.5820312
 CG ITER, OVMR, OVMRUB =          24   30457.1640625   32142.5820312
 CG ITER, OVMR, OVMRUB =          25   30468.4296875   32142.5820312
 CG ITER, OVMR, OVMRUB =          26   30468.4296875   32142.5820312
OVLB =   30468.4296875 OVLUB =   32142.5820312 TIME =       1.5900000
